PREC = Accurate
ENCUT = 500
ISTART = 0
ISMEAR = 1
SIGMA = 0.1
NSW = 1000
NELMIN = 5
NELM = 100
IBRION = 1
POTIM = 0.2
ISIF = 2
ISYM = 2
EDIFF = 0.000001
EDIFFG = -0.0001
LREAL = .FALSE.
LWAVE = .FALSE.
LCHARG = .FALSE.
NCORE = 1
KPAR = 1
